(set-option :produce-models true); benchmark generated from python API
(set-info :status unknown)
(declare-fun l_0_0_9 () Real)
(declare-fun l_0_0_8 () Real)
(declare-fun l_0_0_3 () Real)
(declare-fun l_0_0_2 () Real)
(declare-fun l_0_0_15 () Real)
(declare-fun l_0_0_14 () Real)
(declare-fun _a_0_ () Real)
(declare-fun l_0_0_5 () Real)
(declare-fun l_0_0_4 () Real)
(declare-fun l_0_0_17 () Real)
(declare-fun l_0_0_16 () Real)
(declare-fun l_0_0_11 () Real)
(declare-fun l_0_0_10 () Real)
(declare-fun _a_1_ () Real)
(declare-fun l_0_0_6 () Real)
(declare-fun l_0_0_18 () Real)
(declare-fun l_0_0_12 () Real)
(declare-fun _a_2_ () Real)
(declare-fun l_0_0_7 () Real)
(declare-fun l_0_0_13 () Real)
(declare-fun l_0_0_1 () Real)
(declare-fun _a_3_ () Real)
(declare-fun _a_4_ () Real)
(declare-fun _a_5_ () Real)
(declare-fun l_0_1_9 () Real)
(declare-fun l_0_1_8 () Real)
(declare-fun l_0_1_15 () Real)
(declare-fun l_0_1_14 () Real)
(declare-fun l_0_1_3 () Real)
(declare-fun l_0_1_2 () Real)
(declare-fun l_0_1_18 () Real)
(declare-fun l_0_1_17 () Real)
(declare-fun l_0_1_16 () Real)
(declare-fun l_0_1_12 () Real)
(declare-fun l_0_1_11 () Real)
(declare-fun l_0_1_10 () Real)
(declare-fun l_0_1_5 () Real)
(declare-fun l_0_1_4 () Real)
(declare-fun l_0_1_6 () Real)
(declare-fun l_0_1_7 () Real)
(declare-fun l_0_1_13 () Real)
(declare-fun l_0_1_1 () Real)
(declare-fun l_0_2_9 () Real)
(declare-fun l_0_2_8 () Real)
(declare-fun l_0_2_15 () Real)
(declare-fun l_0_2_14 () Real)
(declare-fun l_0_2_3 () Real)
(declare-fun l_0_2_2 () Real)
(declare-fun l_0_2_18 () Real)
(declare-fun l_0_2_17 () Real)
(declare-fun l_0_2_16 () Real)
(declare-fun l_0_2_12 () Real)
(declare-fun l_0_2_11 () Real)
(declare-fun l_0_2_10 () Real)
(declare-fun l_0_2_5 () Real)
(declare-fun l_0_2_4 () Real)
(declare-fun l_0_2_6 () Real)
(declare-fun l_0_2_7 () Real)
(declare-fun l_0_2_13 () Real)
(declare-fun l_0_2_1 () Real)
(assert
 (let ((?x79 (* l_0_0_9 l_0_0_9)))
 (let ((?x80 (* (/ 7.0 20.0) ?x79)))
 (let ((?x76 (* l_0_0_8 l_0_0_8)))
 (let ((?x77 (* (/ 7.0 20.0) ?x76)))
 (let ((?x73 (* l_0_0_3 l_0_0_3)))
 (let ((?x74 (* (/ 7.0 20.0) ?x73)))
 (let ((?x69 (* l_0_0_2 l_0_0_2)))
 (let ((?x71 (* (/ 7.0 20.0) ?x69)))
 (let ((?x72 (+ (- (- _a_0_ (* l_0_0_14 l_0_0_14)) (* l_0_0_15 l_0_0_15)) ?x71)))
 (= (+ (+ (+ ?x72 ?x74) ?x77) ?x80) 0.0)))))))))))
(assert
 (let ((?x116 (+ (+ _a_1_ (* (* (/ 7.0 10.0) l_0_0_10) l_0_0_8)) (* (* (/ 7.0 10.0) l_0_0_11) l_0_0_9))))
 (let ((?x123 (- (- ?x116 (* (* 2.0 l_0_0_14) l_0_0_16)) (* (* 2.0 l_0_0_15) l_0_0_17))))
 (let ((?x130 (- (+ ?x123 (* (* (/ 7.0 10.0) l_0_0_2) l_0_0_4)) (* (* (/ 6.0 5.0) l_0_0_2) l_0_0_2))))
 (let ((?x136 (- (+ ?x130 (* (* (/ 7.0 10.0) l_0_0_3) l_0_0_5)) (* (* (/ 6.0 5.0) l_0_0_3) l_0_0_3))))
 (= ?x136 0.0))))))
(assert
 (let ((?x204 (* l_0_0_6 l_0_0_6)))
 (let ((?x205 (* (/ 7.0 20.0) ?x204)))
 (let ((?x201 (* l_0_0_5 l_0_0_5)))
 (let ((?x202 (* (/ 7.0 20.0) ?x201)))
 (let ((?x198 (* l_0_0_4 l_0_0_4)))
 (let ((?x199 (* (/ 7.0 20.0) ?x198)))
 (let ((?x73 (* l_0_0_3 l_0_0_3)))
 (let ((?x69 (* l_0_0_2 l_0_0_2)))
 (let ((?x187 (* l_0_0_18 l_0_0_18)))
 (let ((?x185 (* l_0_0_17 l_0_0_17)))
 (let ((?x183 (* l_0_0_16 l_0_0_16)))
 (let ((?x180 (* l_0_0_12 l_0_0_12)))
 (let ((?x181 (* (/ 7.0 20.0) ?x180)))
 (let ((?x177 (* l_0_0_11 l_0_0_11)))
 (let ((?x178 (* (/ 7.0 20.0) ?x177)))
 (let ((?x184 (- (+ (+ (+ _a_2_ (* (/ 7.0 20.0) (* l_0_0_10 l_0_0_10))) ?x178) ?x181) ?x183)))
 (let ((?x193 (+ (- (- (- ?x184 ?x185) ?x187) (* (* (/ 12.0 5.0) l_0_0_2) l_0_0_4)) ?x69)))
 (let ((?x203 (+ (+ (+ (- ?x193 (* (* (/ 12.0 5.0) l_0_0_3) l_0_0_5)) ?x73) ?x199) ?x202)))
 (= (+ ?x203 ?x205) 0.0))))))))))))))))))))
(assert
 (let ((?x79 (* l_0_0_9 l_0_0_9)))
 (let ((?x76 (* l_0_0_8 l_0_0_8)))
 (let ((?x240 (* l_0_0_7 l_0_0_7)))
 (let ((?x241 (* (/ 7.0 20.0) ?x240)))
 (let ((?x235 (* l_0_0_13 l_0_0_13)))
 (let ((?x232 (* l_0_0_1 l_0_0_1)))
 (let ((?x233 (* (/ 7.0 20.0) ?x232)))
 (let ((?x234 (+ _a_3_ ?x233)))
 (let ((?x243 (+ (+ (- (- ?x234 ?x235) (* (* (/ 12.0 5.0) l_0_0_7) l_0_0_8)) ?x241) ?x76)))
 (= (+ ?x243 ?x79) 0.0)))))))))))
(assert
 (let ((?x262 (- (+ _a_4_ (* (* (/ 7.0 10.0) l_0_0_1) l_0_0_2)) (* (* 2.0 l_0_0_13) l_0_0_14))))
 (let ((?x268 (- (+ ?x262 (* (* (/ 7.0 10.0) l_0_0_7) l_0_0_8)) (* (* (/ 6.0 5.0) l_0_0_8) l_0_0_8))))
 (= (- ?x268 (* (* (/ 6.0 5.0) l_0_0_9) l_0_0_9)) 0.0))))
(assert
 (let ((?x299 (+ (- _a_5_ (* (* (/ 12.0 5.0) l_0_0_1) l_0_0_2)) (* (* (/ 7.0 10.0) l_0_0_1) l_0_0_4))))
 (let ((?x304 (- (+ ?x299 (* (* (/ 7.0 10.0) l_0_0_10) l_0_0_7)) (* (* (/ 12.0 5.0) l_0_0_10) l_0_0_8))))
 (let ((?x309 (- (- ?x304 (* (* (/ 12.0 5.0) l_0_0_11) l_0_0_9)) (* (* 2.0 l_0_0_13) l_0_0_16))))
 (= ?x309 0.0)))))
(assert
 (let ((?x341 (- (* (* (- (/ 6.0 5.0)) l_0_0_1) l_0_0_1) (* (* (/ 12.0 5.0) l_0_0_10) l_0_0_7))))
 (let ((?x347 (+ (+ ?x341 (* (* 2.0 l_0_0_10) l_0_0_8)) (* (* 2.0 l_0_0_11) l_0_0_9))))
 (= ?x347 0.0))))
(assert
 (let ((?x362 (- (* (* 2.0 l_0_0_1) l_0_0_2) (* (* (/ 12.0 5.0) l_0_0_1) l_0_0_4))))
 (let ((?x368 (- (- ?x362 (* (* (/ 6.0 5.0) l_0_0_10) l_0_0_10)) (* (* (/ 6.0 5.0) l_0_0_11) l_0_0_11))))
 (= (- ?x368 (* (* (/ 6.0 5.0) l_0_0_12) l_0_0_12)) 0.0))))
(assert
 (let ((?x401 (+ (* (* 2.0 l_0_0_2) l_0_0_4) (* (* 2.0 l_0_0_3) l_0_0_5))))
 (let ((?x407 (- (- ?x401 (* (* (/ 6.0 5.0) l_0_0_4) l_0_0_4)) (* (* (/ 6.0 5.0) l_0_0_5) l_0_0_5))))
 (= (- ?x407 (* (* (/ 6.0 5.0) l_0_0_6) l_0_0_6)) 0.0))))
(assert
 (let ((?x180 (* l_0_0_12 l_0_0_12)))
 (let ((?x177 (* l_0_0_11 l_0_0_11)))
 (let ((?x433 (+ (+ (+ (* l_0_0_1 l_0_0_1) (* l_0_0_10 l_0_0_10)) ?x177) ?x180)))
 (= ?x433 0.0)))))
(assert
 (= (* (* 2.0 l_0_0_1) l_0_0_4) 0.0))
(assert
 (let ((?x204 (* l_0_0_6 l_0_0_6)))
 (= (+ (+ (* l_0_0_4 l_0_0_4) (* l_0_0_5 l_0_0_5)) ?x204) 0.0)))
(assert
 (let ((?x449 (- (* (* 2.0 l_0_0_7) l_0_0_8) (* (* (/ 6.0 5.0) l_0_0_7) l_0_0_7))))
 (= ?x449 0.0)))
(assert
 (let ((?x240 (* l_0_0_7 l_0_0_7)))
 (= ?x240 0.0)))
(assert
 (= (* (* 2.0 l_0_0_10) l_0_0_7) 0.0))
(assert
 (>= l_0_0_1 0.0))
(assert
 (>= l_0_0_3 0.0))
(assert
 (>= l_0_0_6 0.0))
(assert
 (>= l_0_0_7 0.0))
(assert
 (>= l_0_0_9 0.0))
(assert
 (>= l_0_0_12 0.0))
(assert
 (>= l_0_0_13 0.0))
(assert
 (>= l_0_0_15 0.0))
(assert
 (>= l_0_0_18 0.0))
(assert
 (let ((?x480 (* l_0_1_15 l_0_1_15)))
 (let ((?x478 (* l_0_1_14 l_0_1_14)))
 (let ((?x479 (- (* (- _a_0_) (+ (* l_0_1_2 l_0_1_2) (* l_0_1_3 l_0_1_3))) ?x478)))
 (let ((?x488 (+ (+ (- ?x479 ?x480) (* 1.0 (* l_0_1_8 l_0_1_8))) (* 1.0 (* l_0_1_9 l_0_1_9)))))
 (= (+ ?x488 (/ 9.0 25.0)) 0.0))))))
(assert
 (let ((?x486 (* l_0_1_9 l_0_1_9)))
 (let ((?x482 (* l_0_1_8 l_0_1_8)))
 (let ((?x536 (* l_0_1_18 l_0_1_18)))
 (let ((?x534 (* l_0_1_17 l_0_1_17)))
 (let ((?x532 (* l_0_1_16 l_0_1_16)))
 (let ((?x518 (+ (* (* 2.0 l_0_1_2) l_0_1_4) (* (* 2.0 l_0_1_3) l_0_1_5))))
 (let ((?x511 (* l_0_1_6 l_0_1_6)))
 (let ((?x512 (+ (+ (* l_0_1_4 l_0_1_4) (* l_0_1_5 l_0_1_5)) ?x511)))
 (let ((?x473 (- _a_0_)))
 (let ((?x522 (- (- (* ?x473 ?x512) (* _a_1_ ?x518)) (* _a_2_ (+ (* l_0_1_2 l_0_1_2) (* l_0_1_3 l_0_1_3))))))
 (let ((?x528 (+ (+ ?x522 (* 1.0 (* l_0_1_10 l_0_1_10))) (* 1.0 (* l_0_1_11 l_0_1_11)))))
 (let ((?x537 (- (- (- (+ ?x528 (* 1.0 (* l_0_1_12 l_0_1_12))) ?x532) ?x534) ?x536)))
 (= (- (- (- ?x537 ?x482) ?x486) 1.0) 0.0))))))))))))))
(assert
 (let ((?x486 (* l_0_1_9 l_0_1_9)))
 (let ((?x482 (* l_0_1_8 l_0_1_8)))
 (let ((?x612 (* l_0_1_13 l_0_1_13)))
 (let ((?x607 (- (* (* (- _a_0_) l_0_1_1) l_0_1_1) (* _a_3_ (+ (* l_0_1_2 l_0_1_2) (* l_0_1_3 l_0_1_3))))))
 (let ((?x616 (+ (- (- ?x607 (* (* (* 2.0 _a_4_) l_0_1_1) l_0_1_2)) ?x612) (* 1.0 (* l_0_1_7 l_0_1_7)))))
 (= (- (- (- ?x616 ?x482) ?x486) 1.0) 0.0)))))))
(assert
 (let ((?x663 (* (* 2.0 l_0_1_7) l_0_1_8)))
 (let ((?x658 (- (* (* (* (- 2.0) _a_0_) l_0_1_1) l_0_1_2) (* _a_4_ (+ (* l_0_1_2 l_0_1_2) (* l_0_1_3 l_0_1_3))))))
 (= (+ (- ?x658 (* (* 2.0 l_0_1_13) l_0_1_14)) ?x663) 0.0))))
(assert
 (let ((?x700 (* 2.0 l_0_1_10)))
 (let ((?x701 (* ?x700 l_0_1_7)))
 (let ((?x518 (+ (* (* 2.0 l_0_1_2) l_0_1_4) (* (* 2.0 l_0_1_3) l_0_1_5))))
 (let ((?x695 (- (* (* (* (- 2.0) _a_0_) l_0_1_1) l_0_1_4) (* (* (* 2.0 _a_1_) l_0_1_1) l_0_1_2))))
 (let ((?x699 (- (- ?x695 (* _a_4_ ?x518)) (* _a_5_ (+ (* l_0_1_2 l_0_1_2) (* l_0_1_3 l_0_1_3))))))
 (= (- (+ ?x699 ?x701) (* (* 2.0 l_0_1_13) l_0_1_16)) 0.0)))))))
(assert
 (let ((?x765 (* (* 2.0 l_0_1_11) l_0_1_9)))
 (let ((?x700 (* 2.0 l_0_1_10)))
 (let ((?x762 (* ?x700 l_0_1_8)))
 (let ((?x518 (+ (* (* 2.0 l_0_1_2) l_0_1_4) (* (* 2.0 l_0_1_3) l_0_1_5))))
 (let ((?x473 (- _a_0_)))
 (let ((?x761 (- (* ?x473 ?x518) (* _a_1_ (+ (* l_0_1_2 l_0_1_2) (* l_0_1_3 l_0_1_3))))))
 (let ((?x772 (- (- (+ (+ ?x761 ?x762) ?x765) (* (* 2.0 l_0_1_14) l_0_1_16)) (* (* 2.0 l_0_1_15) l_0_1_17))))
 (= ?x772 0.0)))))))))
(assert
 (let ((?x765 (* (* 2.0 l_0_1_11) l_0_1_9)))
 (let ((?x700 (* 2.0 l_0_1_10)))
 (let ((?x762 (* ?x700 l_0_1_8)))
 (let ((?x518 (+ (* (* 2.0 l_0_1_2) l_0_1_4) (* (* 2.0 l_0_1_3) l_0_1_5))))
 (let ((?x818 (- (- (* (* (- _a_1_) l_0_1_1) l_0_1_1) (* _a_3_ ?x518)) (* (* (* 2.0 _a_4_) l_0_1_1) l_0_1_4))))
 (let ((?x824 (- (- (- ?x818 (* (* (* 2.0 _a_5_) l_0_1_1) l_0_1_2)) ?x762) ?x765)))
 (= ?x824 0.0))))))))
(assert
 (let ((?x663 (* (* 2.0 l_0_1_7) l_0_1_8)))
 (let ((?x518 (+ (* (* 2.0 l_0_1_2) l_0_1_4) (* (* 2.0 l_0_1_3) l_0_1_5))))
 (let ((?x511 (* l_0_1_6 l_0_1_6)))
 (let ((?x512 (+ (+ (* l_0_1_4 l_0_1_4) (* l_0_1_5 l_0_1_5)) ?x511)))
 (let ((?x874 (- (* (* (* (- 2.0) _a_1_) l_0_1_1) l_0_1_4) (* (* (* 2.0 _a_2_) l_0_1_1) l_0_1_2))))
 (= (- (- (- ?x874 (* _a_4_ ?x512)) (* _a_5_ ?x518)) ?x663) 0.0)))))))
(assert
 (let ((?x765 (* (* 2.0 l_0_1_11) l_0_1_9)))
 (let ((?x700 (* 2.0 l_0_1_10)))
 (let ((?x762 (* ?x700 l_0_1_8)))
 (let ((?x518 (+ (* (* 2.0 l_0_1_2) l_0_1_4) (* (* 2.0 l_0_1_3) l_0_1_5))))
 (let ((?x511 (* l_0_1_6 l_0_1_6)))
 (let ((?x512 (+ (+ (* l_0_1_4 l_0_1_4) (* l_0_1_5 l_0_1_5)) ?x511)))
 (let ((?x812 (- _a_1_)))
 (= (- (- (- (* ?x812 ?x512) (* _a_2_ ?x518)) ?x762) ?x765) 0.0)))))))))
(assert
 (let ((?x614 (* l_0_1_7 l_0_1_7)))
 (let ((?x529 (* l_0_1_12 l_0_1_12)))
 (let ((?x526 (* l_0_1_11 l_0_1_11)))
 (let ((?x523 (* l_0_1_10 l_0_1_10)))
 (let ((?x511 (* l_0_1_6 l_0_1_6)))
 (let ((?x512 (+ (+ (* l_0_1_4 l_0_1_4) (* l_0_1_5 l_0_1_5)) ?x511)))
 (let ((?x971 (- (- (* (* (- _a_2_) l_0_1_1) l_0_1_1) (* _a_3_ ?x512)) (* (* (* 2.0 _a_5_) l_0_1_1) l_0_1_4))))
 (= (- (- (- (- ?x971 ?x523) ?x526) ?x529) ?x614) 0.0)))))))))
(assert
 (let ((?x700 (* 2.0 l_0_1_10)))
 (let ((?x701 (* ?x700 l_0_1_7)))
 (let ((?x511 (* l_0_1_6 l_0_1_6)))
 (let ((?x512 (+ (+ (* l_0_1_4 l_0_1_4) (* l_0_1_5 l_0_1_5)) ?x511)))
 (let ((?x1018 (- (- (* (* (* (- 2.0) _a_2_) l_0_1_1) l_0_1_4) (* _a_5_ ?x512)) ?x701)))
 (= ?x1018 0.0)))))))
(assert
 (let ((?x529 (* l_0_1_12 l_0_1_12)))
 (let ((?x526 (* l_0_1_11 l_0_1_11)))
 (let ((?x523 (* l_0_1_10 l_0_1_10)))
 (let ((?x511 (* l_0_1_6 l_0_1_6)))
 (let ((?x512 (+ (+ (* l_0_1_4 l_0_1_4) (* l_0_1_5 l_0_1_5)) ?x511)))
 (let ((?x965 (- _a_2_)))
 (= (- (- (- (* ?x965 ?x512) ?x523) ?x526) ?x529) 0.0))))))))
(assert
 (= (- (* (* (- _a_3_) l_0_1_1) l_0_1_1) (* l_0_1_7 l_0_1_7)) 0.0))
(assert
 (let ((?x663 (* (* 2.0 l_0_1_7) l_0_1_8)))
 (let ((?x1079 (- (* (* (* (- 2.0) _a_3_) l_0_1_1) l_0_1_2) (* (* _a_4_ l_0_1_1) l_0_1_1))))
 (= (- ?x1079 ?x663) 0.0))))
(assert
 (let ((?x700 (* 2.0 l_0_1_10)))
 (let ((?x701 (* ?x700 l_0_1_7)))
 (let ((?x1095 (- (* (* (* (- 2.0) _a_3_) l_0_1_1) l_0_1_4) (* (* _a_5_ l_0_1_1) l_0_1_1))))
 (= (- ?x1095 ?x701) 0.0)))))
(assert
 (>= l_0_1_1 0.0))
(assert
 (>= l_0_1_3 0.0))
(assert
 (>= l_0_1_6 0.0))
(assert
 (>= l_0_1_7 0.0))
(assert
 (>= l_0_1_9 0.0))
(assert
 (>= l_0_1_12 0.0))
(assert
 (>= l_0_1_13 0.0))
(assert
 (>= l_0_1_15 0.0))
(assert
 (>= l_0_1_18 0.0))
(assert
 (let ((?x1126 (* l_0_2_15 l_0_2_15)))
 (let ((?x1124 (* l_0_2_14 l_0_2_14)))
 (let ((?x1123 (+ (* (- _a_0_) (+ (* l_0_2_2 l_0_2_2) (* l_0_2_3 l_0_2_3))) _a_0_)))
 (let ((?x1133 (- (- (- (- ?x1123 ?x1124) ?x1126) (* (* 1.0 l_0_2_8) l_0_2_8)) (* (* 1.0 l_0_2_9) l_0_2_9))))
 (= ?x1133 0.0))))))
(assert
 (let ((?x1151 (* l_0_2_9 l_0_2_9)))
 (let ((?x1147 (* l_0_2_8 l_0_2_8)))
 (let ((?x1190 (* l_0_2_18 l_0_2_18)))
 (let ((?x1188 (* l_0_2_17 l_0_2_17)))
 (let ((?x1186 (* l_0_2_16 l_0_2_16)))
 (let ((?x1175 (* (/ 3.0 5.0) _a_4_)))
 (let ((?x1170 (* (/ 1.0 2.0) _a_1_)))
 (let ((?x1166 (+ (* (* 2.0 l_0_2_2) l_0_2_4) (* (* 2.0 l_0_2_3) l_0_2_5))))
 (let ((?x1159 (* l_0_2_6 l_0_2_6)))
 (let ((?x1160 (+ (+ (* l_0_2_4 l_0_2_4) (* l_0_2_5 l_0_2_5)) ?x1159)))
 (let ((?x473 (- _a_0_)))
 (let ((?x1173 (- (+ (- (* ?x473 ?x1160) (* _a_1_ ?x1166)) ?x1170) (* _a_2_ (+ (* l_0_2_2 l_0_2_2) (* l_0_2_3 l_0_2_3))))))
 (let ((?x1182 (- (- (- ?x1173 ?x1175) (* (* 1.0 l_0_2_10) l_0_2_10)) (* (* 1.0 l_0_2_11) l_0_2_11))))
 (let ((?x1191 (- (- (- (- ?x1182 (* (* 1.0 l_0_2_12) l_0_2_12)) ?x1186) ?x1188) ?x1190)))
 (= (+ (+ ?x1191 ?x1147) ?x1151) 0.0))))))))))))))))
(assert
 (let ((?x1151 (* l_0_2_9 l_0_2_9)))
 (let ((?x1147 (* l_0_2_8 l_0_2_8)))
 (let ((?x1277 (* l_0_2_13 l_0_2_13)))
 (let ((?x1275 (* (/ 3.0 10.0) _a_4_)))
 (let ((?x1270 (- (+ (* (* (- _a_0_) l_0_2_1) l_0_2_1) (* (/ 2.0 5.0) _a_1_)) (* _a_3_ (+ (* l_0_2_2 l_0_2_2) (* l_0_2_3 l_0_2_3))))))
 (let ((?x1278 (- (+ (- ?x1270 (* (* (* 2.0 _a_4_) l_0_2_1) l_0_2_2)) ?x1275) ?x1277)))
 (= (+ (+ (- ?x1278 (* (* 1.0 l_0_2_7) l_0_2_7)) ?x1147) ?x1151) 0.0))))))))
(assert
 (let ((?x1249 (* l_0_2_12 l_0_2_12)))
 (let ((?x1245 (* l_0_2_11 l_0_2_11)))
 (let ((?x1241 (* l_0_2_10 l_0_2_10)))
 (let ((?x1322 (* (/ 3.0 10.0) _a_5_)))
 (let ((?x1320 (* (/ 9.0 25.0) _a_3_)))
 (let ((?x1318 (* (/ 1.0 4.0) _a_2_)))
 (let ((?x1159 (* l_0_2_6 l_0_2_6)))
 (let ((?x1160 (+ (+ (* l_0_2_4 l_0_2_4) (* l_0_2_5 l_0_2_5)) ?x1159)))
 (let ((?x965 (- _a_2_)))
 (let ((?x1326 (+ (+ (+ (- (+ (+ (* ?x965 ?x1160) ?x1318) ?x1320) ?x1322) ?x1241) ?x1245) ?x1249)))
 (= ?x1326 0.0))))))))))))
(assert
 (let ((?x1310 (* l_0_2_7 l_0_2_7)))
 (let ((?x1249 (* l_0_2_12 l_0_2_12)))
 (let ((?x1245 (* l_0_2_11 l_0_2_11)))
 (let ((?x1241 (* l_0_2_10 l_0_2_10)))
 (let ((?x1355 (* (/ 9.0 100.0) _a_5_)))
 (let ((?x1320 (* (/ 9.0 25.0) _a_3_)))
 (let ((?x1159 (* l_0_2_6 l_0_2_6)))
 (let ((?x1160 (+ (+ (* l_0_2_4 l_0_2_4) (* l_0_2_5 l_0_2_5)) ?x1159)))
 (let ((?x1349 (- (+ (* (* (- _a_2_) l_0_2_1) l_0_2_1) (* (/ 2.0 5.0) _a_2_)) (* _a_3_ ?x1160))))
 (let ((?x1356 (- (- (- ?x1349 ?x1320) (* (* (* 2.0 _a_5_) l_0_2_1) l_0_2_4)) ?x1355)))
 (= (+ (+ (+ (+ ?x1356 ?x1241) ?x1245) ?x1249) ?x1310) 0.0))))))))))))
(assert
 (let ((?x1310 (* l_0_2_7 l_0_2_7)))
 (let ((?x1406 (* (/ 3.0 25.0) _a_5_)))
 (let ((?x1403 (* (/ 9.0 100.0) _a_3_)))
 (let ((?x1407 (+ (+ (- (* (/ 4.0 25.0) _a_2_) (* (* _a_3_ l_0_2_1) l_0_2_1)) ?x1403) ?x1406)))
 (= (+ ?x1407 ?x1310) 0.0))))))
(assert
 (let ((?x1423 (* (* 2.0 l_0_2_7) l_0_2_8)))
 (let ((?x1418 (- (* (* (* (- 2.0) _a_0_) l_0_2_1) l_0_2_2) (* _a_4_ (+ (* l_0_2_2 l_0_2_2) (* l_0_2_3 l_0_2_3))))))
 (= (- (- ?x1418 (* (* 2.0 l_0_2_13) l_0_2_14)) ?x1423) 0.0))))
(assert
 (let ((?x1463 (* 2.0 l_0_2_10)))
 (let ((?x1464 (* ?x1463 l_0_2_7)))
 (let ((?x1166 (+ (* (* 2.0 l_0_2_2) l_0_2_4) (* (* 2.0 l_0_2_3) l_0_2_5))))
 (let ((?x1458 (- (* (* (* (- 2.0) _a_0_) l_0_2_1) l_0_2_4) (* (* (* 2.0 _a_1_) l_0_2_1) l_0_2_2))))
 (let ((?x1462 (- (- ?x1458 (* _a_4_ ?x1166)) (* _a_5_ (+ (* l_0_2_2 l_0_2_2) (* l_0_2_3 l_0_2_3))))))
 (= (- (- ?x1462 ?x1464) (* (* 2.0 l_0_2_13) l_0_2_16)) 0.0)))))))
(assert
 (let ((?x1530 (* (* 2.0 l_0_2_11) l_0_2_9)))
 (let ((?x1463 (* 2.0 l_0_2_10)))
 (let ((?x1527 (* ?x1463 l_0_2_8)))
 (let ((?x1166 (+ (* (* 2.0 l_0_2_2) l_0_2_4) (* (* 2.0 l_0_2_3) l_0_2_5))))
 (let ((?x473 (- _a_0_)))
 (let ((?x1526 (- (* ?x473 ?x1166) (* _a_1_ (+ (* l_0_2_2 l_0_2_2) (* l_0_2_3 l_0_2_3))))))
 (let ((?x1537 (- (- (- (- ?x1526 ?x1527) ?x1530) (* (* 2.0 l_0_2_14) l_0_2_16)) (* (* 2.0 l_0_2_15) l_0_2_17))))
 (= ?x1537 0.0)))))))))
(assert
 (let ((?x1530 (* (* 2.0 l_0_2_11) l_0_2_9)))
 (let ((?x1463 (* 2.0 l_0_2_10)))
 (let ((?x1527 (* ?x1463 l_0_2_8)))
 (let ((?x1166 (+ (* (* 2.0 l_0_2_2) l_0_2_4) (* (* 2.0 l_0_2_3) l_0_2_5))))
 (let ((?x1587 (- (- (* (* (- _a_1_) l_0_2_1) l_0_2_1) (* _a_3_ ?x1166)) (* (* (* 2.0 _a_4_) l_0_2_1) l_0_2_4))))
 (let ((?x1591 (+ (+ (- ?x1587 (* (* (* 2.0 _a_5_) l_0_2_1) l_0_2_2)) ?x1527) ?x1530)))
 (= ?x1591 0.0))))))))
(assert
 (let ((?x1423 (* (* 2.0 l_0_2_7) l_0_2_8)))
 (let ((?x1166 (+ (* (* 2.0 l_0_2_2) l_0_2_4) (* (* 2.0 l_0_2_3) l_0_2_5))))
 (let ((?x1159 (* l_0_2_6 l_0_2_6)))
 (let ((?x1160 (+ (+ (* l_0_2_4 l_0_2_4) (* l_0_2_5 l_0_2_5)) ?x1159)))
 (let ((?x1634 (- (* (* (* (- 2.0) _a_1_) l_0_2_1) l_0_2_4) (* (* (* 2.0 _a_2_) l_0_2_1) l_0_2_2))))
 (= (+ (- (- ?x1634 (* _a_4_ ?x1160)) (* _a_5_ ?x1166)) ?x1423) 0.0)))))))
(assert
 (let ((?x1530 (* (* 2.0 l_0_2_11) l_0_2_9)))
 (let ((?x1463 (* 2.0 l_0_2_10)))
 (let ((?x1527 (* ?x1463 l_0_2_8)))
 (let ((?x1166 (+ (* (* 2.0 l_0_2_2) l_0_2_4) (* (* 2.0 l_0_2_3) l_0_2_5))))
 (let ((?x1159 (* l_0_2_6 l_0_2_6)))
 (let ((?x1160 (+ (+ (* l_0_2_4 l_0_2_4) (* l_0_2_5 l_0_2_5)) ?x1159)))
 (let ((?x812 (- _a_1_)))
 (= (+ (+ (- (* ?x812 ?x1160) (* _a_2_ ?x1166)) ?x1527) ?x1530) 0.0)))))))))
(assert
 (let ((?x1463 (* 2.0 l_0_2_10)))
 (let ((?x1464 (* ?x1463 l_0_2_7)))
 (let ((?x1159 (* l_0_2_6 l_0_2_6)))
 (let ((?x1160 (+ (+ (* l_0_2_4 l_0_2_4) (* l_0_2_5 l_0_2_5)) ?x1159)))
 (let ((?x1719 (+ (- (* (* (* (- 2.0) _a_2_) l_0_2_1) l_0_2_4) (* _a_5_ ?x1160)) ?x1464)))
 (= ?x1719 0.0)))))))
(assert
 (let ((?x1423 (* (* 2.0 l_0_2_7) l_0_2_8)))
 (let ((?x1743 (- (* (* (* (- 2.0) _a_3_) l_0_2_1) l_0_2_2) (* (* _a_4_ l_0_2_1) l_0_2_1))))
 (= (+ ?x1743 ?x1423) 0.0))))
(assert
 (let ((?x1463 (* 2.0 l_0_2_10)))
 (let ((?x1464 (* ?x1463 l_0_2_7)))
 (let ((?x1756 (- (* (* (* (- 2.0) _a_3_) l_0_2_1) l_0_2_4) (* (* _a_5_ l_0_2_1) l_0_2_1))))
 (= (+ ?x1756 ?x1464) 0.0)))))
(assert
 (>= l_0_2_1 0.0))
(assert
 (>= l_0_2_3 0.0))
(assert
 (>= l_0_2_6 0.0))
(assert
 (>= l_0_2_7 0.0))
(assert
 (>= l_0_2_9 0.0))
(assert
 (>= l_0_2_12 0.0))
(assert
 (>= l_0_2_13 0.0))
(assert
 (>= l_0_2_15 0.0))
(assert
 (>= l_0_2_18 0.0))
(check-sat)
(get-model)